MARKOV
5
2  2  2  2  2
10
2 0 1
2 0 2
2 0 3
2 0 4
2 1 2
2 1 3
2 1 4
2 2 3
2 2 4
2 3 4

4
0.4012 0.2740
0.9816 0.9313

4
0.7012 0.1895
0.1514 0.0824

4
0.0070 0.0169
0.0537 0.2511

4
0.5284 0.2922
0.3982 0.2140

4
0.0212 0.9253
0.7150 0.8386

4
0.1500 0.4643
0.2759 0.4649

4
0.9773 0.8206
0.8228 0.4569

4
0.3923 0.9168
0.7741 0.9461

4
0.4531 0.1210
0.5005 0.8937

4
0.4909 0.6698
0.1238 0.8342
